benchmarks_vrp/CMT4/tsp_classic/CMT4_8.vrp
NAME: CMT4_8
TYPE: CVRP
COMMENT: 1028.42 - Cluster Nr.8
DIMENSION: 15
CAPACITY: 200
EDGE_WEIGHT_TYPE: EUC_2D
NODE_COORD_TYPE: TWOD_COORDS
NODE_COORD_SECTION: 
4 6 68
11 16 57
6 20 65
2 37 69
13 35 69
14 2 60
8 17 63
3 5 64
9 8 56
5 27 68
7 31 67
10 27 69
12 15 77
15 15 60
1 35 35
DEPOT_SECTION: 
1
-1
DEMAND_SECTION: 
2 11
8 19
7 3
10 10
12 9
14 5
6 12
13 23
4 30
15 17
9 27
11 16
3 11
5 7
1 0
EOF
