benchmarks_vrp/CMT4/tsp_classic/CMT4_8.tour
NAME: CMT4_8 solution
TYPE: TOUR
TOUR_SECTION:
1 2 13 7 5 10 6 8 12 4 3 14 9 15 11 -1
-1
EOF